certificates/rado_a11_c42_N21.cnf
c Rad2 upper bound instance: x1 + 11*x2 - x3 = 42, interval [1,21]
p cnf 21 80
1 3 4 0
-1 -3 -4 0
1 5 14 0
-1 -5 -14 0
2 4 0
-2 -4 0
2 5 15 0
-2 -5 -15 0
3 4 5 0
-3 -4 -5 0
3 5 16 0
-3 -5 -16 0
4 6 0
-4 -6 0
4 5 17 0
-4 -5 -17 0
4 5 7 0
-4 -5 -7 0
5 18 0
-5 -18 0
4 6 8 0
-4 -6 -8 0
5 6 19 0
-5 -6 -19 0
4 7 9 0
-4 -7 -9 0
5 7 20 0
-5 -7 -20 0
4 8 10 0
-4 -8 -10 0
5 8 21 0
-5 -8 -21 0
4 9 11 0
-4 -9 -11 0
1 3 10 0
-1 -3 -10 0
4 10 12 0
-4 -10 -12 0
2 3 11 0
-2 -3 -11 0
4 11 13 0
-4 -11 -13 0
3 12 0
-3 -12 0
4 12 14 0
-4 -12 -14 0
3 4 13 0
-3 -4 -13 0
4 13 15 0
-4 -13 -15 0
3 5 14 0
-3 -5 -14 0
4 14 16 0
-4 -14 -16 0
3 6 15 0
-3 -6 -15 0
4 15 17 0
-4 -15 -17 0
3 7 16 0
-3 -7 -16 0
4 16 18 0
-4 -16 -18 0
3 8 17 0
-3 -8 -17 0
4 17 19 0
-4 -17 -19 0
3 9 18 0
-3 -9 -18 0
4 18 20 0
-4 -18 -20 0
3 10 19 0
-3 -10 -19 0
4 19 21 0
-4 -19 -21 0
3 11 20 0
-3 -11 -20 0
1 2 21 0
-1 -2 -21 0
3 12 21 0
-3 -12 -21 0
