certificates/rado_a11_c42_N21.drat
-19 -21 0
d -4 -19 -21 0
-4 -3 19 0
12 -20 19 0
-12 -21 0
-21 0
-4 19 0
d -4 -3 19 0
19 0
-4 -12 0
-12 0
3 0
-10 0
4 0
-2 0
-6 0
-17 0
-1 0
-5 0
-13 0
0
